35 35
22
3 3 28 12
3 4 0 9
3 5 32 7
3 6 3 10
3 7 32 0
3 8 28 27
3 9 0 0
3 10 7 0
3 12 28 15
3 19 3 16
3 22 0 13
4 3 24 32
4 4 3 6
4 5 24 27
4 6 3 0
4 7 24 20
4 8 6 10
4 12 28 0
4 17 6 18
4 20 24 0
4 23 31 12
14 35 10 0
